p cnf 248 810
c ind 240 241 243 242 239 244 245 246 225 233 0
c ind 228 217 236 220 224 216 232 235 227 219 0
c ind 215 234 223 226 231 218 237 238 221 222 0
c ind 229 230 1 0
c ret 175 184 185 186 187 188 189 190 191 192 0
c ret 193 176 194 195 196 197 198 199 200 201 0
c ret 202 203 177 204 205 206 207 208 209 210 0
c ret 211 212 213 178 214 179 180 181 182 183 0
2 3 -94 -128 -133 0
-2 -3 0
-2 133 0
-2 128 0
-2 94 0
3 -4 -21 -34 -45 0
-3 45 0
-3 4 0
-3 34 0
-3 21 0
4 -5 -14 224 0
4 -5 -13 -14 0
-4 14 0
-4 5 0
-4 13 -224 0
5 6 9 10 242 0
5 6 -9 10 -242 0
-5 -6 0
-5 9 -242 0
-5 -10 0
-5 -9 242 0
6 7 -239 0
-6 239 0
-6 -7 0
7 -8 -231 0
7 8 231 0
-7 -8 231 0
-7 8 -231 0
8 237 -238 0
8 -237 238 0
-8 -237 -238 0
-8 237 238 0
-8 9 234 0
8 9 -234 0
-8 -9 -234 0
8 -9 234 0
10 11 -226 0
-10 226 0
-10 -11 0
11 -12 218 0
11 12 -218 0
-11 -12 -218 0
-11 12 218 0
12 221 -222 0
12 -221 222 0
-12 -221 -222 0
-12 221 222 0
13 215 -216 0
-12 13 -216 0
12 13 -215 216 0
-12 -13 216 0
-13 215 216 0
12 -13 -215 -216 0
14 -15 -18 -226 0
11 14 -15 -18 0
-14 18 0
-14 15 0
-11 -14 226 0
15 -16 -17 238 -245 0
15 -16 -17 -238 245 0
-15 17 0
-15 238 245 0
-15 16 0
-15 -238 -245 0
16 221 222 -229 -238 0
-16 -221 0
-16 238 0
-16 229 0
-16 -222 0
17 217 218 219 220 0
-17 -220 0
-17 -219 0
-17 -217 0
-17 -218 0
18 19 -20 229 0
18 19 -20 222 0
-18 20 0
-18 -19 0
-18 -222 -229 0
19 -221 -237 0
19 230 237 0
19 230 246 0
19 221 -230 0
-19 -221 -230 237 0
-19 221 230 -237 -246 0
20 215 216 246 0
20 215 216 -237 0
-20 -215 0
-20 -216 0
-20 237 -246 0
21 -22 25 -27 -28 0
21 -22 -25 27 -28 0
-21 28 0
-21 -25 -27 0
-21 22 0
-21 25 27 0
7 22 -234 0
22 23 -239 0
22 -234 -239 0
7 22 23 0
-22 -23 234 0
-7 -22 239 0
23 -24 226 0
23 24 -226 0
-23 -24 -226 0
-23 24 226 0
24 229 -230 0
24 -229 230 0
-24 -229 -230 0
-24 229 230 0
25 -26 -224 0
-25 224 0
-25 26 0
24 26 -223 0
-26 223 0
-24 -26 0
27 -225 -233 0
27 225 233 0
-27 225 -233 0
-27 -225 233 0
28 29 30 31 231 0
28 -29 30 31 -231 0
-28 -30 0
-28 29 -231 0
-28 -31 0
-28 -29 231 0
-24 29 -223 0
24 29 223 0
-24 -29 223 0
24 -29 -223 0
23 30 -234 0
-30 234 0
-23 -30 0
31 -32 -33 0
31 32 33 0
-31 32 -33 0
-31 -32 33 0
-8 32 -234 0
-32 234 0
8 -32 0
33 -235 -243 0
33 235 243 0
-33 235 -243 0
-33 -235 243 0
34 35 37 -39 -235 0
34 -35 37 -39 235 0
-34 39 0
-34 35 235 0
-34 -37 0
-34 -35 -235 0
35 -36 -227 0
35 36 227 0
-35 -36 227 0
-35 36 -227 0
-24 36 -226 0
-36 226 0
24 -36 0
-13 37 38 0
13 -37 0
-37 -38 0
-26 38 232 0
26 38 -232 0
-26 -38 -232 0
26 -38 232 0
39 40 -41 43 225 0
39 40 41 43 -225 0
-39 -40 0
-39 -41 -225 0
-39 -43 0
-39 41 225 0
-38 40 224 0
-40 -224 0
38 -40 0
41 -42 -217 0
41 42 217 0
-41 -42 217 0
-41 42 -217 0
12 42 -215 -216 0
-42 215 0
-42 216 0
-12 -42 0
43 -44 -223 0
43 44 223 0
-43 -44 223 0
-43 44 -223 0
-12 44 215 0
12 44 -215 0
-12 -44 -215 0
12 -44 215 0
45 -49 -55 241 0
45 46 -49 -55 0
-45 55 0
-45 49 0
-45 -46 -241 0
46 -47 -233 0
46 47 233 0
-46 -47 233 0
-46 47 -233 0
47 -48 -232 0
-47 232 0
-47 48 0
8 48 -231 0
-48 231 0
-8 -48 0
49 50 -52 0
49 228 236 0
49 -52 236 0
49 50 228 0
-49 -50 -236 0
-49 52 -228 0
50 -51 -228 0
50 51 228 0
-50 -51 228 0
-50 51 -228 0
-36 51 -227 0
-51 227 0
36 -51 0
52 -53 220 0
52 53 -220 0
-52 -53 -220 0
-52 53 220 0
53 -54 -219 0
-53 219 0
-53 54 0
-12 54 -218 0
-54 218 0
12 -54 0
55 -56 -90 -92 244 0
55 -56 -90 92 -244 0
-55 56 0
-55 -92 -244 0
-55 90 0
-55 92 244 0
56 57 88 -89 227 0
56 57 -88 -89 -227 0
-56 89 0
-56 -88 227 0
-56 -57 0
-56 88 -227 0
57 -58 73 84 0
57 -58 73 81 0
-57 58 0
-57 -73 0
-57 -81 -84 0
58 62 66 0
58 59 69 0
58 62 69 0
58 59 66 0
-58 -59 -62 0
-58 -66 -69 0
59 -60 -61 209 233 0
59 -60 -61 -209 -233 0
-59 61 0
-59 -209 233 0
-59 60 0
-59 209 -233 0
60 -212 232 0
60 -208 236 0
60 -208 -212 0
60 232 236 0
-60 212 -236 0
-60 208 -232 0
61 -211 213 -235 237 0
61 211 -213 235 -237 0
61 211 213 235 237 0
61 -211 -213 -235 -237 0
-61 -211 235 0
-61 211 -235 0
-61 213 -237 0
-61 -213 237 0
62 -63 -65 214 238 0
62 -63 -65 -214 -238 0
-62 65 0
-62 -214 238 0
-62 63 0
-62 214 -238 0
63 -64 -207 -231 0
63 -64 207 231 0
-63 64 0
-63 -207 231 0
-63 207 -231 0
64 -210 -232 0
64 208 234 0
64 208 -210 0
64 -232 234 0
-64 -208 232 0
-64 210 -234 0
65 210 212 0
65 -234 -236 0
65 210 -236 0
65 212 -234 0
-65 -210 234 0
-65 -212 236 0
66 -67 -68 210 242 0
66 -67 -68 -210 -242 0
-66 68 0
-66 -210 242 0
-66 67 0
-66 210 -242 0
67 -211 241 0
67 -209 243 0
67 -209 -211 0
67 241 243 0
-67 211 -243 0
-67 209 -241 0
68 -208 212 -240 244 0
68 208 -212 240 -244 0
68 208 212 240 244 0
68 -208 -212 -240 -244 0
-68 -208 240 0
-68 208 -240 0
-68 212 -244 0
-68 -212 244 0
69 -70 -71 213 245 0
69 -70 -71 -213 -245 0
-69 71 0
-69 -213 245 0
-69 70 0
-69 213 -245 0
70 -214 -241 0
70 209 246 0
70 209 -214 0
70 -241 246 0
-70 -209 241 0
-70 214 -246 0
71 -72 -207 -239 0
71 -72 207 239 0
-71 72 0
-71 -207 239 0
-71 207 -239 0
72 211 214 0
72 -243 -246 0
72 211 -246 0
72 214 -243 0
-72 -211 243 0
-72 -214 246 0
73 -74 -77 -79 -80 0
-73 80 0
-73 74 0
-73 79 0
-73 77 0
74 -75 -76 209 225 0
74 -75 -76 -209 -225 0
-74 76 0
-74 -209 225 0
-74 75 0
-74 209 -225 0
75 -212 224 0
75 -208 228 0
75 -208 -212 0
75 224 228 0
-75 212 -228 0
-75 208 -224 0
76 -211 213 -227 229 0
76 211 -213 227 -229 0
76 211 213 227 229 0
76 -211 -213 -227 -229 0
-76 -211 227 0
-76 211 -227 0
-76 213 -229 0
-76 -213 229 0
77 -78 -207 -223 0
77 -78 207 223 0
-77 78 0
-77 -207 223 0
-77 207 -223 0
78 -210 -224 0
78 208 226 0
78 208 -210 0
78 -224 226 0
-78 -208 224 0
-78 210 -226 0
79 210 212 0
79 -226 -228 0
79 210 -228 0
79 212 -226 0
-79 -210 226 0
-79 -212 228 0
80 -214 -230 0
80 214 230 0
-80 214 -230 0
-80 -214 230 0
81 -82 -83 210 218 0
81 -82 -83 -210 -218 0
-81 83 0
-81 -210 218 0
-81 82 0
-81 210 -218 0
82 -211 217 0
82 -209 219 0
82 -209 -211 0
82 217 219 0
-82 211 -219 0
-82 209 -217 0
83 -208 212 -216 220 0
83 208 -212 216 -220 0
83 208 212 216 220 0
83 -208 -212 -216 -220 0
-83 -208 216 0
-83 208 -216 0
-83 212 -220 0
-83 -212 220 0
84 -85 -86 213 221 0
84 -85 -86 -213 -221 0
-84 86 0
-84 -213 221 0
-84 85 0
-84 213 -221 0
85 -214 -217 0
85 209 222 0
85 209 -214 0
85 -217 222 0
-85 -209 217 0
-85 214 -222 0
86 -87 -207 -215 0
86 -87 207 215 0
-86 87 0
-86 -207 215 0
-86 207 -215 0
87 211 214 0
87 -219 -222 0
87 211 -222 0
87 214 -219 0
-87 -211 219 0
-87 -214 222 0
-54 88 219 0
54 88 -219 0
-54 -88 -219 0
54 -88 219 0
-50 89 -228 0
52 89 -236 0
89 -228 -236 0
-50 52 89 0
-52 -89 228 0
50 -89 236 0
-46 90 91 -240 0
-46 90 -91 240 0
90 -91 240 -241 0
90 91 -240 -241 0
-90 -91 -240 0
-90 91 240 0
46 -90 241 0
-48 91 -232 0
48 91 232 0
-48 -91 232 0
48 -91 -232 0
92 -93 -236 0
92 93 236 0
-92 -93 236 0
-92 93 -236 0
-32 93 -235 0
-93 235 0
32 -93 0
94 -95 -121 -123 193 0
94 -95 121 -123 -193 0
-94 123 0
-94 -121 -193 0
-94 95 0
-94 121 193 0
95 -96 -104 -107 212 0
95 -96 104 -107 -212 0
-95 107 0
-95 -104 -212 0
-95 96 0
-95 104 212 0
96 -97 -101 -191 0
96 97 100 191 0
96 97 -101 191 0
96 -97 100 -191 0
-96 -97 191 0
-96 97 -191 0
-96 -100 101 0
97 98 99 0
97 98 -183 0
-97 -98 0
-97 -99 183 0
98 184 -192 0
98 -184 192 0
-98 -184 -192 0
-98 184 192 0
99 189 -190 0
99 -189 190 0
-99 -189 -190 0
-99 189 190 0
100 175 -176 0
100 -175 176 0
-100 -175 -176 0
-100 175 176 0
101 -102 184 0
101 102 -184 0
-101 -102 -184 0
-101 102 184 0
102 -103 -175 0
-102 175 0
-102 103 0
103 181 -182 0
103 -181 182 0
-103 -181 -182 0
-103 181 182 0
104 -105 -204 0
104 105 204 0
-104 -105 204 0
-104 105 -204 0
105 -106 -202 -203 0
-105 202 0
-105 203 0
-105 106 0
106 205 -206 0
106 -205 206 0
-106 -205 -206 0
-106 205 206 0
107 -111 -118 204 0
107 108 -111 -118 0
-107 118 0
-107 111 0
-107 -108 -204 0
108 -109 -196 0
108 109 196 0
-108 -109 196 0
-108 109 -196 0
109 -110 -194 -195 0
-109 194 0
-109 195 0
-109 110 0
110 197 -198 0
110 -197 198 0
-110 -197 -198 0
-110 197 198 0
-98 111 -113 0
111 112 -113 0
-111 113 0
98 -111 -112 0
99 112 -183 0
-112 183 0
-99 -112 0
99 113 115 0
113 -114 116 0
99 113 -114 0
113 115 116 0
-99 -113 -116 0
-113 114 -115 0
110 114 -191 0
-114 191 0
-110 -114 0
115 192 -200 0
115 -192 200 0
-115 -192 -200 0
-115 192 200 0
116 117 -186 0
116 117 194 0
-116 -117 0
-116 186 -194 0
117 187 -195 0
117 -187 195 0
-117 -187 -195 0
-117 187 195 0
118 119 -204 0
-108 118 196 0
118 196 -204 0
-108 118 119 0
-118 -119 -196 0
108 -118 204 0
119 -120 -188 0
119 120 188 0
-119 -120 188 0
-119 120 -188 0
-99 120 -186 -187 0
-120 186 0
-120 187 0
99 -120 0
121 -122 -185 0
121 122 185 0
-121 -122 185 0
-121 122 -185 0
-112 122 -184 0
-122 184 0
112 -122 0
123 124 125 127 187 0
123 124 -125 127 -187 0
-123 -124 0
-123 125 -187 0
-123 -127 0
-123 -125 187 0
-101 124 -175 -176 0
-101 124 175 176 0
101 -124 0
-124 -175 176 0
-124 175 -176 0
125 -126 179 0
125 126 -179 0
-125 -126 -179 0
-125 126 179 0
-103 126 -178 0
-126 178 0
103 -126 0
119 127 196 0
-127 -196 0
-119 -127 0
128 129 188 -201 0
128 -129 -131 -188 0
128 129 -131 188 0
128 -129 -188 -201 0
-128 129 -188 0
-128 -129 188 0
-128 131 201 0
129 -130 180 0
129 130 -180 0
-129 -130 -180 0
-129 130 180 0
-126 130 -179 0
-130 179 0
126 -130 0
131 -132 -193 0
131 132 193 0
-131 -132 193 0
-131 132 -193 0
-114 132 -192 0
-132 192 0
114 -132 0
133 -134 -142 -168 -171 0
-133 171 0
-133 134 0
-133 168 0
-133 142 0
134 135 -138 141 209 0
134 135 138 141 -209 0
-134 -135 0
-134 -138 -209 0
-134 -141 0
-134 138 209 0
135 -136 -185 0
135 136 185 0
-135 -136 185 0
-135 136 -185 0
136 -137 -177 0
136 137 177 0
-136 -137 177 0
-136 137 -177 0
103 137 -175 -176 0
-137 175 0
-137 176 0
-103 -137 0
138 -139 -201 0
138 139 201 0
-138 -139 201 0
-138 139 -201 0
139 -140 -200 0
-139 200 0
-139 140 0
106 140 -199 0
-140 199 0
-106 -140 0
-131 141 -201 0
-141 201 0
131 -141 0
142 -143 -154 -157 -161 0
-142 161 0
-142 143 0
-142 157 0
-142 154 0
110 143 -144 -146 -150 0
-110 143 144 -146 -150 0
-143 150 0
110 -143 144 0
-143 146 0
-110 -143 -144 0
144 145 -194 0
144 145 202 0
-144 -145 0
-144 194 -202 0
145 195 -203 0
145 -195 203 0
-145 -195 -203 0
-145 195 203 0
145 146 147 -148 -149 0
-145 146 -147 -148 -149 0
145 146 147 148 149 0
-145 146 -147 148 149 0
145 -146 -147 0
-145 -146 147 0
-146 148 -149 0
-146 -148 149 0
147 -194 202 0
-147 194 0
-147 -202 0
148 -202 210 0
-148 202 0
-148 -210 0
149 203 -211 0
149 -203 211 0
-149 -203 -211 0
-149 203 211 0
150 183 207 0
150 -151 153 0
150 153 207 0
150 -151 183 0
-150 -153 -183 0
-150 151 -207 0
151 152 -199 0
106 151 152 0
-151 -152 0
-106 -151 199 0
152 200 -208 0
152 -200 208 0
-152 -200 -208 0
-152 200 208 0
-103 153 175 0
103 153 -175 0
-103 -153 -175 0
103 -153 175 0
140 152 154 155 156 0
-140 -152 154 155 156 0
-154 -155 0
-140 152 -154 0
-154 -156 0
140 -152 -154 0
-114 115 155 0
114 -155 0
-115 -155 0
-98 112 156 0
98 -156 0
-112 -156 0
117 157 158 159 160 0
-117 157 158 159 -160 0
-157 -158 0
117 -157 -160 0
-157 -159 0
-117 -157 160 0
158 189 205 0
158 182 -205 0
158 -189 198 0
158 -182 -198 0
-158 -182 189 198 -205 0
-158 182 -189 -198 205 0
159 197 -206 0
159 -181 -197 0
159 190 206 0
159 181 -190 0
-159 181 190 -197 -206 0
-159 -181 -190 197 206 0
160 -186 194 0
-160 186 0
-160 -194 0
-99 161 -162 -165 0
-116 161 -162 -165 0
-161 165 0
-161 162 0
99 116 -161 0
162 -163 164 205 214 0
162 -163 164 -205 -214 0
-162 -164 0
-162 -205 214 0
-162 163 0
-162 205 -214 0
163 175 176 0
-163 -175 0
-163 -176 0
164 -206 -213 0
-164 206 0
-164 213 0
165 -166 -167 -206 0
165 -166 -167 -213 0
-165 167 0
-165 166 0
-165 206 213 0
166 181 182 0
-166 -181 0
-166 -182 0
167 177 178 179 180 0
-167 -180 0
-167 -179 0
-167 -177 0
-167 -178 0
168 170 -186 199 0
168 169 -170 -199 0
168 -170 -186 -199 0
168 169 170 199 0
-168 -170 199 0
-168 170 -199 0
-168 -169 186 0
-103 169 178 0
103 169 -178 0
-103 -169 -178 0
103 -169 178 0
115 170 -191 0
110 115 170 0
-115 -170 0
-110 -170 191 0
151 171 172 -173 0
171 172 -173 -207 0
-171 173 0
-171 -172 0
-151 -171 207 0
169 172 -186 0
-172 186 0
-169 -172 0
106 173 -174 -183 0
-106 -153 173 174 0
-106 173 174 -183 0
106 -153 173 -174 0
106 -173 174 0
-106 -173 -174 0
153 -173 183 0
149 174 -202 0
149 174 210 0
-149 -174 0
-174 202 -210 0
1 2 0
-1 -2 0
247 0

